\ENCODING=ISO-8859-1
\Problem name: IloCplex

Maximize
 obj: 3 x(0) + 3 x(1) + 3 x(2) + 3 x(3) + 3 x(4) + 3 x(5) + 3 x(6) + 3 x(7)
      + 3 x(8) + 3 x(9) + 3 x(10) + 3 x(11) + 3 x(12) + 3 x(13) + 3 x(14)
      + 3 x(15) + 3 x(16) + 3 x(17) + 3 x(18) + 3 x(19) + 3 x(20) + 3 x(21)
      + 3 x(22) + 3 x(23) + 3 x(24) + 3 x(25) + 3 x(26) + 3 x(27) + 3 x(28)
      + 3 x(29) + 3 x(30) + 3 x(31) + 3 x(32) + 3 x(33) + 3 x(34) + 3 x(35)
      + 3 x(36) + 3 x(37) + 3 x(38) + 3 x(39) + 3 x(40) + 3 x(41) + 3 x(42)
      + 3 x(43) + 3 x(44) + 3 x(45) + 3 x(46) + 3 x(47) + 3 x(48) + 3 x(49)
      + 3 x(50) + 3 x(51) + 3 x(52) + 3 x(53) + 3 x(54) + 3 x(55) + 3 x(56)
      + 3 x(57) + 3 x(58) + 3 x(59) + 3 x(60) + 3 x(61) + 3 x(62) + 3 x(63)
      + 3 x(64) + 3 x(65) + 3 x(66) + 3 x(67) + 3 x(68) + 3 x(69) + 3 x(70)
      + 3 x(71) + 3 x(72) + 3 x(73) + 3 x(74) + 3 x(75) + 3 x(76) + 3 x(77)
      + 3 x(78) + 3 x(79) + 3 x(80) + 3 x(81) + 3 x(82) + 3 x(83) + 3 x(84)
      + 3 x(85) + 3 x(86) + 3 x(87) + 3 x(88) + 3 x(89) + 3 x(90) + 3 x(91)
      + 3 x(92) + 3 x(93) + 3 x(94) + 3 x(95) + 3 x(96) + 3 x(97) + 3 x(98)
      + 3 x(99) + 3 x(100) + 3 x(101) + 3 x(102) + 3 x(103) + 3 x(104)
      + 3 x(105) + 3 x(106) + 3 x(107) + 3 x(108)
Subject To
 c1:  5 x(52) + x(60) + 4.23303597599192 x(67) + 16218.2044836122 x(106)
      + 16203.2044836122 x(107) <= 10.0266666666667
 c2:  x(1) + x(11) + 5 x(35) <= 10.0166666666667
 c3:  x(15) + 2 x(36) <= 7.01666666666667
 c4:  x(20) + x(37) <= 6.01666666666667
 c5:  4 x(48) + x(51) + x(57) + x(93) <= 9.035
 c6:  x(47) <= 6.01333333333333
 c7:  x(46) <= 6.01333333333333
 c8:  - 0.820147117199326 x(24) + x(25) + 2 x(45) <= 7.01333333333333
 c9:  3 x(44) + 2.05774652010803 x(61) <= 8.01333333333333
 c10: 0.0153398788687014 x(35) + 2 x(43) <= 7.01333333333333
 c11: x(17) + 4 x(42) + x(44) <= 9.00666666666667
 c12: x(36) + 3 x(41) <= 8.00666666666667
 c13: 3 x(40) <= 8.00666666666667
 c14: x(3) + x(17) + 4 x(39) + 112.082074895545 x(42) <= 9.02166666666667
 c15: x(28) + x(38) <= 6.01666666666667
 c16: 2 x(56) + x(104) <= 7.045
 c17: x(49) + 4 x(55) + x(74) + x(94) <= 9.04666666666667
 c18: x(54) <= 6.04666666666667
 c19: 2 x(53) + x(72) <= 7.04666666666667
 c20: 3 x(60) <= 8.045
 c21: 4 x(51) + 16226.2044836122 x(93) <= 9.02666666666667
 c22: 2 x(50) + x(59) <= 7.035
 c23: 3 x(49) + x(74) + x(94) <= 8.035
 c24: x(75) + x(79) <= 6.05166666666667
 c25: x(50) + 5 x(74) <= 10.0516666666667
 c26: x(48) + x(51) + x(57) + 4 x(73) + 6714.71056026824 x(93)
      <= 9.05166666666667
 c27: 3 x(72) + x(80) <= 8.05166666666667
 c28: x(71) <= 6.02166666666667
 c29: x(70) + x(71) <= 6.02166666666667
 c30: x(69) - 9.44739183633708 x(102) <= 6.01666666666667
Bounds
 0 <= x(0) <= 1
 0 <= x(1) <= 1
 0 <= x(2) <= 1
 0 <= x(3) <= 1
 0 <= x(4) <= 1
 0 <= x(5) <= 1
 0 <= x(6) <= 1
 0 <= x(7) <= 1
 0 <= x(8) <= 1
 0 <= x(9) <= 1
 0 <= x(10) <= 1
 0 <= x(11) <= 1
 0 <= x(12) <= 1
 0 <= x(13) <= 1
 0 <= x(14) <= 1
 0 <= x(15) <= 1
 0 <= x(16) <= 1
 0 <= x(17) <= 1
 0 <= x(18) <= 1
 0 <= x(19) <= 1
 0 <= x(20) <= 1
 0 <= x(21) <= 1
 0 <= x(22) <= 1
 0 <= x(23) <= 1
 0 <= x(24) <= 1
 0 <= x(25) <= 1
 0 <= x(26) <= 1
 0 <= x(27) <= 1
 0 <= x(28) <= 1
 0 <= x(29) <= 1
 0 <= x(30) <= 1
 0 <= x(31) <= 1
 0 <= x(32) <= 1
 0 <= x(33) <= 1
 0 <= x(34) <= 1
 0 <= x(35) <= 1
 0 <= x(36) <= 1
 0 <= x(37) <= 1
 0 <= x(38) <= 1
 0 <= x(39) <= 1
 0 <= x(40) <= 1
 0 <= x(41) <= 1
 0 <= x(42) <= 1
 0 <= x(43) <= 1
 0 <= x(44) <= 1
 0 <= x(45) <= 1
 0 <= x(46) <= 1
 0 <= x(47) <= 1
 0 <= x(48) <= 1
 0 <= x(49) <= 1
 0 <= x(50) <= 1
 0 <= x(51) <= 1
 0 <= x(52) <= 1
 0 <= x(53) <= 1
 0 <= x(54) <= 1
 0 <= x(55) <= 1
 0 <= x(56) <= 1
 0 <= x(57) <= 1
 0 <= x(58) <= 1
 0 <= x(59) <= 1
 0 <= x(60) <= 1
 0 <= x(61) <= 1
 0 <= x(62) <= 1
 0 <= x(63) <= 1
 0 <= x(64) <= 1
 0 <= x(65) <= 1
 0 <= x(66) <= 1
 0 <= x(67) <= 1
 0 <= x(68) <= 1
 0 <= x(69) <= 1
 0 <= x(70) <= 1
 0 <= x(71) <= 1
 0 <= x(72) <= 1
 0 <= x(73) <= 1
 0 <= x(74) <= 1
 0 <= x(75) <= 1
 0 <= x(76) <= 1
 0 <= x(77) <= 1
 0 <= x(78) <= 1
 0 <= x(79) <= 1
 0 <= x(80) <= 1
 0 <= x(81) <= 1
 0 <= x(82) <= 1
 0 <= x(83) <= 1
 0 <= x(84) <= 1
 0 <= x(85) <= 1
 0 <= x(86) <= 1
 0 <= x(87) <= 1
 0 <= x(88) <= 1
 0 <= x(89) <= 1
 0 <= x(90) <= 1
 0 <= x(91) <= 1
 0 <= x(92) <= 1
 0 <= x(93) <= 1
 0 <= x(94) <= 1
 0 <= x(95) <= 1
 0 <= x(96) <= 1
 0 <= x(97) <= 1
 0 <= x(98) <= 1
 0 <= x(99) <= 1
 0 <= x(100) <= 1
 0 <= x(101) <= 1
 0 <= x(102) <= 1
 0 <= x(103) <= 1
 0 <= x(104) <= 1
 0 <= x(105) <= 1
 0 <= x(106) <= 1
 0 <= x(107) <= 1
 0 <= x(108) <= 1
Binaries
 x(0)  x(1)  x(2)  x(3)  x(4)  x(5)  x(6)  x(7)  x(8)  x(9)  x(10)  x(11) 
 x(12)  x(13)  x(14)  x(15)  x(16)  x(17)  x(18)  x(19)  x(20)  x(21)  x(22) 
 x(23)  x(24)  x(25)  x(26)  x(27)  x(28)  x(29)  x(30)  x(31)  x(32)  x(33) 
 x(34)  x(35)  x(36)  x(37)  x(38)  x(39)  x(40)  x(41)  x(42)  x(43)  x(44) 
 x(45)  x(46)  x(47)  x(48)  x(49)  x(50)  x(51)  x(52)  x(53)  x(54)  x(55) 
 x(56)  x(57)  x(58)  x(59)  x(60)  x(61)  x(62)  x(63)  x(64)  x(65)  x(66) 
 x(67)  x(68)  x(69)  x(70)  x(71)  x(72)  x(73)  x(74)  x(75)  x(76)  x(77) 
 x(78)  x(79)  x(80)  x(81)  x(82)  x(83)  x(84)  x(85)  x(86)  x(87)  x(88) 
 x(89)  x(90)  x(91)  x(92)  x(93)  x(94)  x(95)  x(96)  x(97)  x(98)  x(99) 
 x(100)  x(101)  x(102)  x(103)  x(104)  x(105)  x(106)  x(107)  x(108) 
End
